10 45
1 2 21
1 3 6
1 4 16
1 5 1
1 6 6
1 7 19
1 8 13
1 9 26
1 10 0
2 3 4
2 4 2
2 5 13
2 6 17
2 7 23
2 8 19
2 9 21
2 10 25
3 4 20
3 5 14
3 6 24
3 7 21
3 8 15
3 9 10
3 10 14
4 5 23
4 6 6
4 7 15
4 8 27
4 9 24
4 10 18
5 6 15
5 7 21
5 8 12
5 9 15
5 10 16
6 7 26
6 8 12
6 9 28
6 10 18
7 8 12
7 9 19
7 10 19
8 9 29
8 10 19
9 10 3
